NAME : n20w40.003.355.tour
COMMENT : Length = 355
COMMENT : Found by LKH [Keld Helsgaun] Tue May  2 05:46:13 2017
TYPE : TOUR
DIMENSION : 21
TOUR_SECTION
1
12
10
15
8
18
11
16
4
14
9
7
5
13
2
20
17
6
21
3
19
-1
EOF
